% File represents an instance of a Composite Structure problem to be solved by a CP framework
% Created on 2025-03-26 10:42:19.082
T = 58;
n = 36;
m = 60;
edges = [(1, 2),
(7, 8),
(14, 13),
(20, 19),
(26, 25),
(31, 32),
(3, 2),
(9, 8),
(14, 15),
(20, 21),
(26, 27),
(33, 32),
(3, 4),
(9, 10),
(15, 16),
(21, 22),
(27, 28),
(33, 34),
(4, 5),
(10, 11),
(17, 16),
(23, 22),
(29, 28),
(34, 35),
(5, 6),
(11, 12),
(17, 18),
(23, 24),
(29, 30),
(35, 36),
(7, 1),
(7, 13),
(13, 19),
(19, 25),
(31, 25),
(8, 2),
(14, 8),
(14, 20),
(20, 26),
(26, 32),
(9, 3),
(9, 15),
(15, 21),
(21, 27),
(33, 27),
(10, 4),
(10, 16),
(16, 22),
(22, 28),
(34, 28),
(11, 5),
(17, 11),
(17, 23),
(23, 29),
(29, 35),
(12, 6),
(18, 12),
(18, 24),
(24, 30),
(30, 36)];
counts = [|8, 14, 8, 24,
|8, 14, 8, 20,
|8, 16, 8, 20,
|6, 16, 6, 18,
|6, 16, 6, 12,
|6, 16, 6, 10,
|8, 16, 8, 24,
|8, 16, 8, 20,
|8, 18, 8, 24,
|8, 18, 8, 18,
|8, 18, 8, 12,
|8, 16, 8, 12,
|8, 16, 8, 20,
|8, 18, 8, 20,
|8, 18, 8, 18,
|8, 16, 8, 18,
|8, 18, 8, 18,
|8, 18, 8, 16,
|8, 16, 8, 16,
|8, 16, 8, 18,
|8, 16, 8, 14,
|8, 14, 8, 14,
|8, 18, 8, 16,
|8, 16, 8, 12,
|6, 16, 6, 16,
|8, 16, 8, 16,
|8, 16, 8, 12,
|8, 12, 8, 12,
|8, 16, 8, 12,
|8, 14, 8, 10,
|8, 16, 8, 16,
|8, 12, 8, 14,
|8, 16, 8, 14,
|8, 14, 8, 14,
|8, 12, 8, 12,
|8, 8, 8, 10|];
